Version identifier: 12.10.0.0 | 2019-11-26 | 843d4de
CPXPARAM_WorkMem                                 28672
Tried aggregator 2 times.
MIP Presolve modified 40 coefficients.
Aggregator did 45 substitutions.
Reduced MIP has 245 rows, 300 columns, and 1135 nonzeros.
Reduced MIP has 300 binaries, 0 generals, 0 SOSs, and 0 indicators.
Presolve time = 0,00 sec. (1,49 ticks)
Found incumbent of value 1280,000000 after 0,00 sec. (2,29 ticks)
Probing time = 0,00 sec. (0,43 ticks)
Tried aggregator 1 time.
Detecting symmetries...
MIP Presolve eliminated 60 rows and 0 columns.
MIP Presolve added 120 rows and 0 columns.
Reduced MIP has 305 rows, 300 columns, and 1195 nonzeros.
Reduced MIP has 300 binaries, 0 generals, 0 SOSs, and 0 indicators.
Presolve time = 0,00 sec. (1,41 ticks)
Probing time = 0,00 sec. (0,42 ticks)
Clique table members: 775.
MIP emphasis: balance optimality and feasibility.
MIP search method: dynamic search.
Parallel mode: deterministic, using up to 16 threads.
Root relaxation solution time = 0,00 sec. (1,75 ticks)

        Nodes                                         Cuts/
   Node  Left     Objective  IInf  Best Integer    Best Bound    ItCnt     Gap

*     0+    0                         1280,0000        0,0000           100,00%
*     0+    0                          661,0000        0,0000           100,00%
*     0+    0                          628,0000        0,0000           100,00%
*     0+    0                          611,0000        0,0000           100,00%
      0     0      261,8182   216      611,0000      261,8182      187   57,15%
*     0+    0                          593,0000      261,8182            55,85%
      0     0      265,8910   216      593,0000     Cuts: 176      258   55,16%
      0     0      271,6614   216      593,0000     Cuts: 147      304   54,19%
      0     0      272,2520   216      593,0000      Cuts: 13      340   54,09%
      0     0      272,9441   216      593,0000      Cuts: 78      389   53,97%
      0     0      273,9558   216      593,0000     Cuts: 104      461   53,80%
      0     0      274,3382   216      593,0000      Cuts: 22      495   53,74%
      0     0      275,6855   216      593,0000     Cuts: 108      547   53,51%
      0     0      276,1097   216      593,0000      Cuts: 21      609   53,44%
      0     0      276,7530   216      593,0000     Cuts: 118      666   53,33%
*     0+    0                          523,0000      276,7530            47,08%
      0     0      277,7911   216      523,0000      Cuts: 33      776   46,89%
      0     0      284,3001   216      523,0000     Cuts: 106      946   45,64%
      0     0      285,4610   216      523,0000     Cuts: 126     1083   45,42%
      0     0      286,2483   216      523,0000      Cuts: 35     1166   45,27%
      0     0      286,3822   216      523,0000  ZeroHalf: 15     1212   45,24%
      0     0      286,7856   216      523,0000      Cuts: 95     1282   45,17%
      0     0      287,0060   216      523,0000      Cuts: 18     1363   45,12%
      0     0      287,1888   216      523,0000      Cuts: 36     1441   43,99%
      0     0      294,4434   216      523,0000      Cuts: 86     1636   43,70%
      0     0      295,5121   216      523,0000     Cuts: 120     1743   43,50%
      0     0      296,0761   216      523,0000      Cuts: 55     1846   43,39%
      0     0      296,7724   216      523,0000     Cuts: 118     1943   43,26%
      0     0      297,1576   216      523,0000      Cuts: 57     2038   43,18%
      0     0      297,4853   216      523,0000     Cuts: 100     2135   43,12%
      0     0      297,8904   216      523,0000      Cuts: 76     2207   42,54%
      0     0      300,2614   216      523,0000      Cuts: 90     2427   42,54%
      0     0      301,7994   216      523,0000      Cuts: 83     2550   42,29%
      0     0      302,1778   216      523,0000      Cuts: 70     2633   42,22%
      0     0      302,6145   216      523,0000      Cuts: 46     2705   42,14%
      0     0      302,9453   216      523,0000      Cuts: 94     2821   42,08%
      0     0      303,2224   216      523,0000      Cuts: 70     2922   42,02%
      0     0      303,4682   216      523,0000      Cuts: 54     2998   41,98%
      0     0      303,8112   216      523,0000      Cuts: 64     3094   41,91%
      0     0      304,0144   216      523,0000      Cuts: 54     3162   41,87%
      0     0      304,1052   216      523,0000      Cuts: 64     3208   41,85%
      0     0      304,2372   216      523,0000      Cuts: 44     3286   38,50%
      0     2      304,2372   300      523,0000      321,6500     3286   38,50%
Elapsed time = 0,99 sec. (577,33 ticks, tree = 0,02 MB, solutions = 6)
   1510  1085      417,5997   190      523,0000      361,4201    39974   30,89%
   1637  1181      419,7056   197      523,0000      361,5391    45286   30,87%
   4230  2763      474,9325    92      523,0000      376,0069   119531   28,11%

Performing restart 1

Repeating presolve.
Tried aggregator 1 time.
Reduced MIP has 305 rows, 300 columns, and 1195 nonzeros.
Reduced MIP has 300 binaries, 0 generals, 0 SOSs, and 0 indicators.
Presolve time = 0,00 sec. (0,71 ticks)
Tried aggregator 1 time.
Reduced MIP has 305 rows, 300 columns, and 1195 nonzeros.
Reduced MIP has 300 binaries, 0 generals, 0 SOSs, and 0 indicators.
Presolve time = 0,00 sec. (0,99 ticks)
Represolve time = 0,03 sec. (12,58 ticks)
   4875     0      304,7814   300      523,0000      Cuts: 40   159496   28,11%
   4875     0      305,6743   300      523,0000      Cuts: 40   159627   28,11%
   4875     0      306,8022   300      523,0000      Cuts: 31   159775   28,11%
   4875     0      307,2874   300      523,0000      Cuts: 53   159921   28,11%
   4875     0      307,8480   300      523,0000      Cuts: 43   160024   28,11%
   4875     2      307,8480   300      523,0000      376,0069   160024   28,11%
   4892    12      428,2393   172      523,0000      376,0069   162119   28,11%
   6014   734      464,6188   158      523,0000      376,0069   208535   28,11%
   6812  1502      402,9518   230      523,0000      376,0069   260426   28,11%
   8008  2247      382,7308   219      523,0000      376,0069   298999   28,11%
   9103  3114      358,3263   222      523,0000      376,0069   352085   28,11%

Performing restart 2

Repeating presolve.
Tried aggregator 1 time.
Reduced MIP has 305 rows, 300 columns, and 1195 nonzeros.
Reduced MIP has 300 binaries, 0 generals, 0 SOSs, and 0 indicators.
Presolve time = 0,00 sec. (0,71 ticks)
Tried aggregator 1 time.
Reduced MIP has 305 rows, 300 columns, and 1195 nonzeros.
Reduced MIP has 300 binaries, 0 generals, 0 SOSs, and 0 indicators.
Presolve time = 0,00 sec. (0,99 ticks)
Represolve time = 0,03 sec. (14,56 ticks)
  11063     0      309,8340   240      523,0000      Cuts: 46   471653   28,11%
  11063     0      310,6567   240      523,0000      Cuts: 40   471765   28,11%
  11063     0      310,9789   240      523,0000      Cuts: 24   471833   28,11%
  11063     0      314,4576   240      523,0000      Cuts: 42   471987   28,11%
  11063     0      314,7782   240      523,0000      Cuts: 44   472056   28,11%
  11063     0      315,9245   240      523,0000      Cuts: 62   472163   28,11%
  11063     2      315,9245   240      523,0000      376,0069   472163   28,11%
Elapsed time = 5,61 sec. (4261,97 ticks, tree = 0,02 MB, solutions = 6)
* 11914+  543                          522,0000      376,0069            27,97%
  18607  4101      509,1596   173      522,0000      458,9571   737361   12,08%
  26006  4338        cutoff            522,0000      494,4778  1019612    5,27%
* 26832+ 4035                          521,0000      498,9984             4,22%

Clique cuts applied:  32
Cover cuts applied:  354
Flow cuts applied:  8
Mixed integer rounding cuts applied:  188
Zero-half cuts applied:  58
Lift and project cuts applied:  73
Gomory fractional cuts applied:  12

Root node processing (before b&c):
  Real time             =    0,96 sec. (576,08 ticks)
Parallel b&c, 16 threads:
  Real time             =    8,00 sec. (6129,60 ticks)
  Sync time (average)   =    2,05 sec.
  Wait time (average)   =    0,00 sec.
                          ------------
Total (root+branch&cut) =    8,96 sec. (6705,69 ticks)
